;; Mutation-Based Equivalence Benchmark
;; Source:     AutomatArk / instance09645.smt2
;; Mutations:  literal_char_dec, literal_char_dec, intersect_ascii_printable_only
;; Status:     sat
;;
;; Original regex vs mutated regex
;; Equivalence check: unsat ⟺ L(R1) = L(R2)

(set-info :smt-lib-version 2.6)
(set-info :category "mutation")
(set-info :status sat)
(set-logic QF_S)

(declare-const x String)

;; R1: original
;; R2: mutated (literal_char_dec, literal_char_dec, intersect_ascii_printable_only)
(assert
  (str.in_re x
    (re.union (re.inter (re.++ (str.to_re "`") (re.* re.allchar) (re.* (re.union (str.to_re "#") (str.to_re "$") (str.to_re "&") (str.to_re "+") (str.to_re ",") (str.to_re "/") (str.to_re ":") (str.to_re ";") (str.to_re "=") (str.to_re "?") (str.to_re "@") (str.to_re ".") (str.to_re "-") (re.range "0" "9") (re.range "A" "Z") (re.range "a" "z") (str.to_re "_"))) (str.to_re "`i\u{a}") (re.union (str.to_re "http") (str.to_re "ftp") (str.to_re "https")) (str.to_re "://") (re.+ (re.union (str.to_re "#") (str.to_re "$") (str.to_re "&") (str.to_re "+") (str.to_re ",") (str.to_re "/") (str.to_re ":") (str.to_re ";") (str.to_re "=") (str.to_re "?") (str.to_re "@") (str.to_re ".") (str.to_re "-") (re.range "0" "9") (re.range "A" "Z") (re.range "a" "z") (str.to_re "_")))) (re.comp (re.++ (str.to_re "`") (re.* re.allchar) (re.* (re.inter (re.union (str.to_re "#") (str.to_re "$") (str.to_re "&") (str.to_re "+") (str.to_re ",") (str.to_re "/") (str.to_re ":") (str.to_re ";") (str.to_re "=") (str.to_re "?") (str.to_re "@") (str.to_re ".") (str.to_re "-") (re.range "0" "9") (re.range "A" "Z") (re.range "a" "z") (str.to_re "_")) (re.* (re.range " " "~")))) (str.to_re "`i\u{a}") (re.union (str.to_re "http") (str.to_re "ftp") (str.to_re "https")) (str.to_re "://") (re.+ (re.union (str.to_re "#") (str.to_re "$") (str.to_re "&") (str.to_re "+") (str.to_re ",") (str.to_re ".") (str.to_re ":") (str.to_re ";") (str.to_re "=") (str.to_re ">") (str.to_re "@") (str.to_re ".") (str.to_re "-") (re.range "0" "9") (re.range "A" "Z") (re.range "a" "z") (str.to_re "_")))))) (re.inter (re.comp (re.++ (str.to_re "`") (re.* re.allchar) (re.* (re.union (str.to_re "#") (str.to_re "$") (str.to_re "&") (str.to_re "+") (str.to_re ",") (str.to_re "/") (str.to_re ":") (str.to_re ";") (str.to_re "=") (str.to_re "?") (str.to_re "@") (str.to_re ".") (str.to_re "-") (re.range "0" "9") (re.range "A" "Z") (re.range "a" "z") (str.to_re "_"))) (str.to_re "`i\u{a}") (re.union (str.to_re "http") (str.to_re "ftp") (str.to_re "https")) (str.to_re "://") (re.+ (re.union (str.to_re "#") (str.to_re "$") (str.to_re "&") (str.to_re "+") (str.to_re ",") (str.to_re "/") (str.to_re ":") (str.to_re ";") (str.to_re "=") (str.to_re "?") (str.to_re "@") (str.to_re ".") (str.to_re "-") (re.range "0" "9") (re.range "A" "Z") (re.range "a" "z") (str.to_re "_"))))) (re.++ (str.to_re "`") (re.* re.allchar) (re.* (re.inter (re.union (str.to_re "#") (str.to_re "$") (str.to_re "&") (str.to_re "+") (str.to_re ",") (str.to_re "/") (str.to_re ":") (str.to_re ";") (str.to_re "=") (str.to_re "?") (str.to_re "@") (str.to_re ".") (str.to_re "-") (re.range "0" "9") (re.range "A" "Z") (re.range "a" "z") (str.to_re "_")) (re.* (re.range " " "~")))) (str.to_re "`i\u{a}") (re.union (str.to_re "http") (str.to_re "ftp") (str.to_re "https")) (str.to_re "://") (re.+ (re.union (str.to_re "#") (str.to_re "$") (str.to_re "&") (str.to_re "+") (str.to_re ",") (str.to_re ".") (str.to_re ":") (str.to_re ";") (str.to_re "=") (str.to_re ">") (str.to_re "@") (str.to_re ".") (str.to_re "-") (re.range "0" "9") (re.range "A" "Z") (re.range "a" "z") (str.to_re "_"))))))))

(check-sat)
(exit)
